c Sudoku solution
p cnf 729 0
185 0
226 0
254 0
328 0
333 0
346 0
511 0
525 0
557 0
579 0
586 0
619 0
674 0
683 0
695 0
748 0
765 0
794 0
384 0
815 0
975 0
235 0
355 0
445 0
821 0
131 0
129 0
114 0
847 0
888 0
934 0
918 0
864 0
424 0
413 0
716 0
544 0
563 0
956 0
993 0
853 0
723 0
462 0
641 0
658 0
666 0
459 0
592 0
436 0
538 0
751 0
981 0
927 0
622 0
637 0
152 0
143 0
249 0
273 0
399 0
942 0
969 0
487 0
282 0
217 0
312 0
789 0
777 0
732 0
839 0
872 0
896 0
176 0
371 0
298 0
197 0
168 0
367 0
261 0
478 0
491 0
